# Non-bonded interactions (lj/cut)
#		atom i    atom j    epsilon (kcal/mol)    sigma (Angstrom)
  pair_coeff       1        1          0.46746941            3.40000000
  pair_coeff       1        2          0.46746941            3.40000000
  pair_coeff       1        3          0.46746941            3.40000000
  pair_coeff       1        4          0.46746941            3.40000000
  pair_coeff       2        2          0.46746941            3.40000000
  pair_coeff       2        3          0.46746941            3.40000000
  pair_coeff       2        4          0.46746941            3.40000000
  pair_coeff       3        3          0.46746941            3.40000000
  pair_coeff       3        4          0.46746941            3.40000000
  pair_coeff       4        4          0.46746941            3.40000000

# Stretching interactions (harmonic)
#               bond type    K (kcal/mol/Angstrom^2)    r0 (Angstrom)
  bond_coeff       1                59.0000                1.5000
  bond_coeff       2                59.0000                1.5000
  bond_coeff       3                59.0000                1.5000
  bond_coeff       4                59.0000                1.5000

# Bending interactions (harmonic)
#              angle type         K (kcal/mol)          theta (degrees)
  angle_coeff      1                60.0000               105.0000