# Non-bonded interactions (lj/cut)
#		atom i    atom j    epsilon (kcal/mol)    sigma (Angstrom)
  pair_coeff       1        1          0.60000000            3.50000000
  pair_coeff       2        2          0.90000000            2.00000000

# Stretching interactions (harmonic)
#               bond type    K (kcal/mol/Angstrom^2)    r0 (Angstrom)
  bond_coeff       1                60.0000                2.0000
  bond_coeff       2                40.0000                1.5000

# Bending interactions (harmonic)
#              angle type         K (kcal/mol)          theta (degrees)
  angle_coeff      1                60.0000               105.0000